
INSTANCE: CMT1
Solved by RCL 
Route #1: 5 18 45 43 20 41 42 14 26 15 
Route #2: 19 48 13 6 39 12 47 
Route #3: 28 7 24 8 44 25 49 9 23 2 33 
Route #4: 31 35 22 30 21 36 37 4 29 32 27 
Route #5: 38 16 46 34 40 11 50 10 51 17 3 
>>>>>>>>>>>>>>>>>>>>>>>>>>>>>>>>> Primeira melhora!
Iteração 1: Custo Atual = 115.153
Initial cost: 120.448

INSTANCE: CMT2
Solved by RCL 
Route #1: 4 45 33 10 40 41 
Route #2: 5 46 28 53 47 35 
Route #3: 12 66 67 60 15 
Route #4: 17 64 2 74 34 3 31 69 
Route #5: 24 57 44 42 43 65 23 62 
Route #6: 30 6 49 75 22 29 63 
Route #7: 36 20 55 9 8 54 39 59 
Route #8: 48 37 70 72 61 71 21 38 16 58 14 
Route #9: 68 27 13 18 7 52 76 
Route #10: 73 11 32 26 56 19 51 25 50 
>>>>>>>>>>>>>>>>>>>>>>>>>>>>>>>>> Primeira melhora!
Iteração 2: Custo Atual = 77.1314
Initial cost: 77.5524
>>>>>>>>>>>>>>>>>>>>>>>>>>>>>>>>> Primeira melhora!
Iteração 1: Custo Atual = 125.829
Initial cost: 126.635
>>>>>>>>>>>>>>>>>>>>>>>>>>>>>>>>> Primeira melhora!
Iteração 1: Custo Atual = 84.3918
Initial cost: 86.5935
>>>>>>>>>>>>>>>>>>>>>>>>>>>>>>>>> Primeira melhora!
Iteração 1: Custo Atual = 49.5544
Initial cost: 56.7158
>>>>>>>>>>>>>>>>>>>>>>>>>>>>>>>>> Primeira melhora!
Iteração 1: Custo Atual = 138.699
Initial cost: 139.98

INSTANCE: CMT3
Solved by RCL 
Route #1: 2 31 71 32 8 89 63 20 49 83 9 84 61 19 
Route #2: 5 26 56 40 68 24 57 76 23 42 75 73 
Route #3: 7 6 85 18 46 47 48 37 50 65 12 64 91 33 11 70 
Route #4: 27 13 55 69 4 78 77 51 29 
Route #5: 41 22 74 3 58 88 98 93 38 99 94 60 100 97 96 
Route #6: 43 16 44 15 45 39 87 17 62 86 92 101 
Route #7: 54 59 14 95 90 53 28 
Route #8: 81 25 30 80 34 82 10 79 35 36 66 72 67 21 52 
>>>>>>>>>>>>>>>>>>>>>>>>>>>>>>>>> Primeira melhora!
Iteração 1: Custo Atual = 121.984
Initial cost: 125.545
>>>>>>>>>>>>>>>>>>>>>>>>>>>>>>>>> Primeira melhora!
Iteração 1: Custo Atual = 121.098
Initial cost: 124.521
>>>>>>>>>>>>>>>>>>>>>>>>>>>>>>>>> Primeira melhora!
Iteração 1: Custo Atual = 160.826
Initial cost: 161.992

INSTANCE: CMT4
Solved by RCL 
Route #1: 13 48 69 140 78 
Route #2: 15 59 97 25 98 87 44 100 115 62 8 70 24 58 47 
Route #3: 17 51 131 119 128 54 22 80 75 35 31 105 10 
Route #4: 19 56 134 26 96 99 133 7 103 
Route #5: 28 82 139 49 113 61 9 27 114 141 32 83 121 2 120 
Route #6: 57 147 5 150 144 136 151 149 88 143 110 145 
Route #7: 63 127 101 3 84 132 21 60 4 102 33 
Route #8: 76 106 40 90 118 74 107 126 34 73 92 46 16 
Route #9: 79 12 39 77 50 11 55 123 125 124 72 91 6 
Route #10: 104 109 38 53 45 108 66 94 43 93 138 148 146 18 64 
Route #11: 112 142 65 20 95 41 89 137 42 67 14 68 135 111 
Route #12: 130 30 129 85 36 86 37 116 122 117 29 71 81 23 52 
>>>>>>>>>>>>>>>>>>>>>>>>>>>>>>>>> Primeira melhora!
Iteração 1: Custo Atual = 41.9725
Initial cost: 43.5399
>>>>>>>>>>>>>>>>>>>>>>>>>>>>>>>>> Primeira melhora!
Iteração 1: Custo Atual = 86.6743
Initial cost: 87.1367
>>>>>>>>>>>>>>>>>>>>>>>>>>>>>>>>> Primeira melhora!
Iteração 1: Custo Atual = 91.2576
Initial cost: 93.2629
>>>>>>>>>>>>>>>>>>>>>>>>>>>>>>>>> Primeira melhora!
Iteração 21: Custo Atual = 86.9141
Initial cost: 86.9713
>>>>>>>>>>>>>>>>>>>>>>>>>>>>>>>>> Primeira melhora!
Iteração 1: Custo Atual = 120.352
Initial cost: 122.179

INSTANCE: CMT5
Solved by RCL 
Route #1: 7 62 55 
Route #2: 8 133 181 70 109 120 39 166 78 130 170 169 
Route #3: 16 155 125 21 167 139 38 89 156 37 123 175 173 
Route #4: 30 80 154 84 14 124 71 129 168 100 180 28 59 
Route #5: 60 6 104 48 172 22 174 83 122 141 95 65 102 
Route #6: 79 20 178 15 134 85 135 86 165 171 12 53 151 
Route #7: 87 29 157 115 143 92 142 23 94 187 197 195 67 113 
Route #8: 96 98 10 162 111 26 57 119 73 148 182 
Route #9: 126 88 5 112 46 99 49 121 31 140 153 
Route #10: 127 18 41 77 13 51 101 27 82 61 128 
Route #11: 131 40 110 76 163 190 58 188 33 107 45 56 4 152 
Route #12: 146 74 19 147 136 93 149 164 32 132 81 11 72 
Route #13: 150 52 36 179 9 103 177 66 47 176 35 
Route #14: 159 198 185 44 191 42 91 116 161 193 106 
Route #15: 160 68 105 183 50 75 145 25 108 64 118 
Route #16: 184 24 117 63 186 90 138 144 69 114 43 200 137 192 2 
Route #17: 189 17 97 34 196 54 199 194 3 158 
>>>>>>>>>>>>>>>>>>>>>>>>>>>>>>>>> Primeira melhora!
Iteração 1: Custo Atual = 95.3915
Initial cost: 97.9108
>>>>>>>>>>>>>>>>>>>>>>>>>>>>>>>>> Primeira melhora!
Iteração 1: Custo Atual = 113.376
Initial cost: 113.676
>>>>>>>>>>>>>>>>>>>>>>>>>>>>>>>>> Primeira melhora!
Iteração 1: Custo Atual = 79.6682
Initial cost: 82.0487
>>>>>>>>>>>>>>>>>>>>>>>>>>>>>>>>> Primeira melhora!
Iteração 1: Custo Atual = 79.9923
Initial cost: 80.4671
>>>>>>>>>>>>>>>>>>>>>>>>>>>>>>>>> Primeira melhora!
Iteração 1: Custo Atual = 114.144
Initial cost: 116.787
>>>>>>>>>>>>>>>>>>>>>>>>>>>>>>>>> Primeira melhora!
Iteração 1: Custo Atual = 81.8179
Initial cost: 82.3557
>>>>>>>>>>>>>>>>>>>>>>>>>>>>>>>>> Primeira melhora!
Iteração 1: Custo Atual = 51.658
Initial cost: 54.0981
>>>>>>>>>>>>>>>>>>>>>>>>>>>>>>>>> Primeira melhora!
Iteração 1: Custo Atual = 84.8689
Initial cost: 86.326
>>>>>>>>>>>>>>>>>>>>>>>>>>>>>>>>> Primeira melhora!
Iteração 2: Custo Atual = 66.7937
Initial cost: 68.0499

INSTANCE: CMT6
Solved by RCL 
Route #1: 2 33 28 49 24 8 44 25 7 
Route #2: 4 36 37 21 29 32 27 9 
Route #3: 10 51 31 35 22 30 17 3 23 
Route #4: 18 38 16 46 34 40 11 50 39 12 
Route #5: 45 43 20 41 42 14 26 15 
Route #6: 47 6 13 48 5 19 
>>>>>>>>>>>>>>>>>>>>>>>>>>>>>>>>> Primeira melhora!
Iteração 1: Custo Atual = 120.046
Initial cost: 123.472
>>>>>>>>>>>>>>>>>>>>>>>>>>>>>>>>> Primeira melhora!
Iteração 2: Custo Atual = 108.907
Initial cost: 111.119

INSTANCE: CMT7
Solved by RCL 
Route #1: 5 46 28 53 35 
Route #2: 10 26 56 19 51 33 
Route #3: 12 66 67 60 15 
Route #4: 13 41 4 45 17 64 34 
Route #5: 27 8 54 9 47 68 
Route #6: 29 62 22 37 48 6 
Route #7: 30 16 58 14 55 20 36 
Route #8: 31 49 75 3 7 52 18 
Route #9: 59 39 11 32 40 73 
Route #10: 70 72 61 71 21 38 
Route #11: 74 2 24 57 25 50 
Route #12: 76 69 63 23 43 65 42 44 
>>>>>>>>>>>>>>>>>>>>>>>>>>>>>>>>> Primeira melhora!
Iteração 1: Custo Atual = 68.3716
Initial cost: 72.4477
>>>>>>>>>>>>>>>>>>>>>>>>>>>>>>>>> Primeira melhora!
Iteração 1: Custo Atual = 92.9729
Initial cost: 94.1098
>>>>>>>>>>>>>>>>>>>>>>>>>>>>>>>>> Primeira melhora!
Iteração 1: Custo Atual = 94.0054
Initial cost: 99.576

INSTANCE: CMT8
Solved by RCL 
Route #1: 3 88 98 96 6 85 18 46 9 84 61 19 
Route #2: 28 32 89 11 63 20 49 83 8 53 
Route #3: 43 58 16 44 15 45 39 87 17 62 
Route #4: 47 48 37 50 65 12 64 91 33 
Route #5: 54 14 59 41 22 74 23 42 5 55 27 29 
Route #6: 70 2 71 31 52 51 77 78 4 80 69 81 13 
Route #7: 73 75 76 57 24 68 40 26 56 25 30 
Route #8: 79 35 36 66 72 67 21 10 82 34 
Route #9: 90 7 97 100 94 99 86 92 101 38 93 60 95 
>>>>>>>>>>>>>>>>>>>>>>>>>>>>>>>>> Primeira melhora!
Iteração 1: Custo Atual = 98.3617
Initial cost: 99.4773
>>>>>>>>>>>>>>>>>>>>>>>>>>>>>>>>> Primeira melhora!
Iteração 1: Custo Atual = 130.58
Initial cost: 131.746
>>>>>>>>>>>>>>>>>>>>>>>>>>>>>>>>> Primeira melhora!
Iteração 10: Custo Atual = 60.8164
Initial cost: 61.8207

INSTANCE: CMT9
Solved by RCL 
Route #1: 11 55 72 124 16 53 45 138 148 110 146 145 
Route #2: 12 101 3 84 132 21 60 4 102 23 121 2 
Route #3: 13 64 18 38 109 91 6 104 
Route #4: 25 98 87 44 100 115 62 8 
Route #5: 28 82 139 49 113 24 70 99 133 58 7 
Route #6: 56 135 68 14 137 41 89 95 20 65 
Route #7: 77 50 10 51 131 119 63 39 
Route #8: 78 33 52 120 103 47 
Route #9: 79 17 128 54 30 130 22 80 75 35 31 105 
Route #10: 81 29 71 32 83 27 114 141 9 61 
Route #11: 123 34 73 92 46 108 66 94 43 93 
Route #12: 125 126 107 74 118 90 40 76 106 
Route #13: 127 129 85 36 86 37 116 122 117 
Route #14: 140 57 48 19 111 134 26 96 97 59 15 69 
Route #15: 143 88 149 151 142 42 67 112 136 144 150 5 147 
>>>>>>>>>>>>>>>>>>>>>>>>>>>>>>>>> Primeira melhora!
Iteração 1: Custo Atual = 80.4063
Initial cost: 81.6643
>>>>>>>>>>>>>>>>>>>>>>>>>>>>>>>>> Primeira melhora!
Iteração 1: Custo Atual = 80.2014
Initial cost: 81.4376
>>>>>>>>>>>>>>>>>>>>>>>>>>>>>>>>> Primeira melhora!
Iteração 1: Custo Atual = 89.9847
Initial cost: 93.1491
>>>>>>>>>>>>>>>>>>>>>>>>>>>>>>>>> Primeira melhora!
Iteração 1: Custo Atual = 82.518
Initial cost: 83.973

INSTANCE: CMT10
Solved by RCL 
Route #1: 27 101 151 53 109 70 181 133 8 52 150 
Route #2: 34 194 195 197 2 192 159 193 54 199 196 106 
Route #3: 38 89 139 21 167 123 37 156 175 48 
Route #4: 49 60 6 104 125 155 16 80 154 28 59 112 
Route #5: 55 31 121 173 172 22 174 83 122 141 95 65 87 
Route #6: 72 120 39 166 78 81 11 130 170 51 13 
Route #7: 73 119 26 57 111 76 163 190 58 40 110 
Route #8: 84 14 124 71 129 20 79 179 36 9 103 177 
Route #9: 102 29 157 115 143 92 142 23 94 187 67 113 
Route #10: 117 63 186 90 138 144 69 114 43 
Route #11: 126 99 30 46 176 47 66 168 100 180 35 
Route #12: 128 5 88 61 82 169 41 77 18 127 
Route #13: 131 188 10 162 98 33 107 45 56 4 152 96 
Route #14: 137 198 185 200 44 191 42 91 116 161 24 184 
Route #15: 147 136 93 149 164 32 132 
Route #16: 153 140 3 158 62 7 
Route #17: 178 134 15 85 135 86 165 171 12 
Route #18: 182 148 19 74 146 25 108 75 145 50 
Route #19: 189 118 64 183 105 68 160 17 97 
>>>>>>>>>>>>>>>>>>>>>>>>>>>>>>>>> Primeira melhora!
Iteração 1: Custo Atual = 70.2343
Initial cost: 70.7091
>>>>>>>>>>>>>>>>>>>>>>>>>>>>>>>>> Primeira melhora!
Iteração 1: Custo Atual = 85.8181
Initial cost: 87.1279
>>>>>>>>>>>>>>>>>>>>>>>>>>>>>>>>> Primeira melhora!
Iteração 1: Custo Atual = 81.7385
Initial cost: 82.6078
>>>>>>>>>>>>>>>>>>>>>>>>>>>>>>>>> Primeira melhora!
Iteração 1: Custo Atual = 60.8835
Initial cost: 68.1777
>>>>>>>>>>>>>>>>>>>>>>>>>>>>>>>>> Primeira melhora!
Iteração 1: Custo Atual = 64.8053
Initial cost: 65.0374
>>>>>>>>>>>>>>>>>>>>>>>>>>>>>>>>> Primeira melhora!
Iteração 1: Custo Atual = 91.3691
Initial cost: 91.7969
>>>>>>>>>>>>>>>>>>>>>>>>>>>>>>>>> Primeira melhora!
Iteração 2: Custo Atual = 62.2166
Initial cost: 62.6875

INSTANCE: CMT11
Solved by RCL 
Route #1: 7 8 10 9 13 14 15 16 12 11 5 4 6 2 3 89 
Route #2: 17 18 24 27 21 20 23 25 26 29 33 31 32 28 34 35 37 36 30 22 110 
Route #3: 38 40 39 43 42 45 48 47 50 51 52 49 46 44 41 111 
Route #4: 83 82 120 96 97 94 95 98 116 117 104 105 108 100 102 103 106 107 121 
Route #5: 88 93 90 92 91 115 109 119 19 118 84 114 85 113 86 87 112 
Route #6: 99 69 77 78 80 81 79 75 73 76 72 74 70 71 68 
Route #7: 101 53 56 59 57 61 66 63 64 65 67 62 60 58 55 54 
>>>>>>>>>>>>>>>>>>>>>>>>>>>>>>>>> Primeira melhora!
Iteração 1: Custo Atual = 137.008
Initial cost: 137.046
>>>>>>>>>>>>>>>>>>>>>>>>>>>>>>>>> Primeira melhora!
Iteração 1: Custo Atual = 220.471
Initial cost: 223.299
>>>>>>>>>>>>>>>>>>>>>>>>>>>>>>>>> Primeira melhora!
Iteração 1: Custo Atual = 199.796
Initial cost: 202.401
>>>>>>>>>>>>>>>>>>>>>>>>>>>>>>>>> Primeira melhora!
Iteração 1: Custo Atual = 93.8571
Initial cost: 94.6137
>>>>>>>>>>>>>>>>>>>>>>>>>>>>>>>>> Primeira melhora!
Iteração 1: Custo Atual = 56.6827
Initial cost: 59.3035
>>>>>>>>>>>>>>>>>>>>>>>>>>>>>>>>> Primeira melhora!
Iteração 1: Custo Atual = 149.638
Initial cost: 151.008
>>>>>>>>>>>>>>>>>>>>>>>>>>>>>>>>> Primeira melhora!
Iteração 1: Custo Atual = 225.07
Initial cost: 231.84

INSTANCE: CMT12
Solved by RCL 
Route #1: 11 100 101 98 93 94 95 96 97 99 
Route #2: 12 13 15 17 20 16 18 19 14 
Route #3: 24 27 29 31 30 28 26 25 23 22 21 
Route #4: 32 33 34 36 38 39 40 37 35 
Route #5: 44 43 41 42 47 45 46 49 52 51 53 50 48 
Route #6: 56 55 54 57 59 61 60 58 
Route #7: 67 69 65 62 73 82 79 77 72 71 74 78 80 81 
Route #8: 70 63 75 64 66 68 
Route #9: 76 2 3 5 7 10 9 8 4 6 
Route #10: 92 90 89 86 85 83 84 87 88 91 
>>>>>>>>>>>>>>>>>>>>>>>>>>>>>>>>> Primeira melhora!
Iteração 1: Custo Atual = 103.578
Initial cost: 104.973
>>>>>>>>>>>>>>>>>>>>>>>>>>>>>>>>> Primeira melhora!
Iteração 1: Custo Atual = 100.152
Initial cost: 101.777
>>>>>>>>>>>>>>>>>>>>>>>>>>>>>>>>> Primeira melhora!
Iteração 1: Custo Atual = 66.2415
Initial cost: 67.6359

INSTANCE: CMT13
Solved by RCL 
Route #1: 17 18 21 23 25 26 20 24 27 22 
Route #2: 29 28 34 32 31 35 37 36 33 30 
Route #3: 41 40 39 42 38 7 8 10 2 3 
Route #4: 43 45 48 50 47 51 52 49 46 44 
Route #5: 59 61 64 65 67 63 62 66 60 58 
Route #6: 69 77 78 80 81 79 73 76 75 72 74 
Route #7: 70 71 68 53 55 56 57 54 99 111 
Route #8: 86 113 85 118 84 114 19 119 115 91 92 90 93 
Route #9: 94 97 95 98 116 117 101 104 105 108 100 102 103 
Route #10: 109 110 9 13 14 15 16 12 11 5 4 6 
Route #11: 121 106 107 96 88 87 112 89 120 82 83 
>>>>>>>>>>>>>>>>>>>>>>>>>>>>>>>>> Primeira melhora!
Iteração 1: Custo Atual = 174.569
Initial cost: 175.938
>>>>>>>>>>>>>>>>>>>>>>>>>>>>>>>>> Primeira melhora!
Iteração 1: Custo Atual = 195.83
Initial cost: 198.322
>>>>>>>>>>>>>>>>>>>>>>>>>>>>>>>>> Primeira melhora!
Iteração 1: Custo Atual = 216.246
Initial cost: 218.753
>>>>>>>>>>>>>>>>>>>>>>>>>>>>>>>>> Primeira melhora!
Iteração 1: Custo Atual = 192.002
Initial cost: 194.233
>>>>>>>>>>>>>>>>>>>>>>>>>>>>>>>>> Primeira melhora!
Iteração 1: Custo Atual = 207.554
Initial cost: 210.29
>>>>>>>>>>>>>>>>>>>>>>>>>>>>>>>>> Primeira melhora!
Iteração 1: Custo Atual = 200.419
Initial cost: 201.858
>>>>>>>>>>>>>>>>>>>>>>>>>>>>>>>>> Primeira melhora!
Iteração 1: Custo Atual = 49.2546
Initial cost: 49.5884
>>>>>>>>>>>>>>>>>>>>>>>>>>>>>>>>> Primeira melhora!
Iteração 1: Custo Atual = 58.137
Initial cost: 58.8936

INSTANCE: CMT14
Solved by RCL 
Route #1: 4 100 101 98 93 94 95 96 97 99 
Route #2: 6 8 76 2 3 5 7 10 9 11 
Route #3: 18 19 20 15 17 13 16 14 12 
Route #4: 24 27 29 31 30 28 26 25 23 22 21 
Route #5: 32 33 34 36 38 39 40 37 35 
Route #6: 42 44 48 
Route #7: 47 43 41 45 46 49 52 51 53 50 
Route #8: 56 58 55 54 57 59 61 60 
Route #9: 64 81 78 80 72 71 74 77 79 82 
Route #10: 70 67 69 65 62 73 75 63 66 68 
Route #11: 92 90 89 86 85 83 84 87 88 91 
>>>>>>>>>>>>>>>>>>>>>>>>>>>>>>>>> Primeira melhora!
Iteração 1: Custo Atual = 97.6316
Initial cost: 99.026
>>>>>>>>>>>>>>>>>>>>>>>>>>>>>>>>> Primeira melhora!
Iteração 8: Custo Atual = 57.1714
Initial cost: 57.9141
>>>>>>>>>>>>>>>>>>>>>>>>>>>>>>>>> Primeira melhora!
Iteração 1: Custo Atual = 99.7937
Initial cost: 103.325
>>>>>>>>>>>>>>>>>>>>>>>>>>>>>>>>> Primeira melhora!
Iteração 1: Custo Atual = 129.486
Initial cost: 134.305
